&CONTROL
   prefix = 'pref'
   calculation = 'scf'
   wf_collect = .true.
   tstress = .true.
   tprnfor = .true.
   outdir='../_outdir'
   pseudo_dir = '/global/homes/t/timur/pseudo'
/
&SYSTEM
   ibrav = 6
   celldm(1) = 7.1150
   celldm(3) = 1.4550
   nat = 4
   ntyp = 3
   nbnd = 64
   ecutwfc = 70.0
   occupations = 'smearing'
   degauss = 0.005
/
&ELECTRONS
   electron_maxstep = 100
   conv_thr = 1.0d-8
   mixing_beta = 0.7
/
ATOMIC_SPECIES
  Fe1 55.845    Fe.pbe-mt_fhi.UPF
  Fe2 55.845    Fe.pbe-mt_fhi.UPF
  Se  78.960    Se.pbe-hgh.UPF
ATOMIC_POSITIONS crystal
Fe1      0.750000000   0.250000000   0.000000000
Se       0.250000000   0.250000000   0.1990
Se       0.750000000   0.750000000  -0.1990
Fe2      0.250000000   0.750000000   0.000000000
